numOfMachines = 4;
numOfRobots = 2;
numOfJobs = 6;
maxOperations = 4;
operationsCount = [2,2,2,2,4,4];
operation = [
[<0,0,0>,<1,16,0>,<3,15,1>],
[<0,0,0>,<2,18,0>,<4,15,0>],
[<0,0,0>,<1,20,0>,<2,10,0>],
[<0,0,0>,<3,15,0>,<4,10,1>],
[<0,0,0>,<1,8,0>,<2,10,0>,<3,15,1>,<4,17,0>],
[<0,0,0>,<2,10,0>,<3,15,0>,<4,8,0>,<1,15,0>]
];